(declare-fun var0 () String)
(assert (RegexIn var0 (RegexConcat (RegexStar (RegexStar (Str2Reg "xx"))) (RegexConcat (RegexPlus (RegexStar (Str2Reg "ww"))) (RegexConcat (RegexUnion (RegexUnion (Str2Reg "tt") (Str2Reg "uu")) (RegexPlus (Str2Reg "vvv"))) (RegexConcat (RegexUnion (RegexPlus (Str2Reg "r")) (RegexStar (Str2Reg "s"))) (RegexConcat (RegexStar (RegexUnion (Str2Reg "p") (Str2Reg "q"))) (RegexConcat (RegexPlus (RegexUnion (Str2Reg "nn") (Str2Reg "ooo"))) (RegexConcat (RegexPlus (RegexUnion (Str2Reg "l") (Str2Reg "mmm"))) (RegexConcat (RegexStar (RegexStar (Str2Reg "k"))) (RegexConcat (RegexPlus (RegexStar (Str2Reg "jjj"))) (RegexConcat (RegexStar (RegexPlus (Str2Reg "ii"))) (RegexConcat (RegexStar (RegexUnion (Str2Reg "g") (Str2Reg "h"))) (RegexConcat (RegexUnion (RegexStar (Str2Reg "eee")) (RegexStar (Str2Reg "fff"))) (RegexConcat (RegexStar (RegexPlus (Str2Reg "dd"))) (RegexConcat (RegexUnion (RegexPlus (Str2Reg "b")) (RegexStar (Str2Reg "cc"))) (RegexConcat (RegexPlus (RegexStar (Str2Reg "a"))) (RegexConcat (RegexPlus (RegexStar (Str2Reg "999"))) (RegexConcat (RegexStar (RegexPlus (Str2Reg "8"))) (RegexConcat (RegexPlus (RegexUnion (Str2Reg "66") (Str2Reg "7"))) (RegexConcat (RegexStar (RegexStar (Str2Reg "5"))) (RegexConcat (RegexPlus (RegexStar (Str2Reg "444"))) (RegexConcat (RegexUnion (RegexStar (Str2Reg "22")) (RegexStar (Str2Reg "333"))) (RegexPlus (RegexUnion (Str2Reg "0") (Str2Reg "1"))))))))))))))))))))))))))
(check-sat)